;---
; .NET regular expressions restricted to 7-bit characters
; membership in intersection of
; .*(monday|tuesday|wednesday|thursday|friday|saturday|sunday).*
; .*(january|february|march|april|may|june|july|august|september|october|november|december).* 
;---
(declare-const x String)
(assert (str.in_re x (re.inter (re.++ (re.++ re.all (re.union (re.union (re.union (re.union (re.union (re.union (str.to_re "monday") (str.to_re "tuesday")) (str.to_re "wednesday")) (str.to_re "thursday")) (str.to_re "friday")) (str.to_re "saturday")) (str.to_re "sunday"))) re.all) (re.++ (re.++ re.all (re.union (re.union (re.union (re.union (re.union (re.union (re.union (re.union (re.union (re.union (re.union (str.to_re "january") (str.to_re "february")) (str.to_re "march")) (str.to_re "april")) (str.to_re "may")) (str.to_re "june")) (str.to_re "july")) (str.to_re "august")) (str.to_re "september")) (str.to_re "october")) (str.to_re "november")) (str.to_re "december"))) re.all))))
(check-sat)
(get-model)
